20 40
6 18 3
3 15 62
8 16 72
14 20 99
13 16 64
2 13 5
10 13 9
17 18 63
1 20 41
2 3 46
9 13 66
7 17 89
17 19 96
14 16 40
6 15 9
4 18 81
5 11 61
13 16 17
9 17 78
3 20 81
1 18 64
10 12 36
3 12 22
1 2 83
3 10 89
7 14 28
12 14 69
8 16 15
18 19 25
11 12 60
2 5 63
14 16 69
15 20 44
5 16 62
9 11 36
11 20 82
9 17 37
9 19 65
1 20 11
3 15 47
